%mem=1GB
%nproc=8
#HF/6-31G* opt=(MaxCycle=600) 
 
Mol 

0,1 
C     -1.20000  -0.23900  -0.02300
C      0.08200   0.55900   0.05000
O      1.22900  -0.25700  -0.10300
H     -2.07900   0.44700   0.02000
H     -1.26500  -0.95800   0.82800
H     -1.24300  -0.81900  -0.97600
H      0.14000   1.11800   1.02300
H      0.14900   1.29300  -0.79800
H      1.17900  -0.94900   0.56700


