%mem=1GB
%nproc=8
#HF/6-31G* nosymm SCF=Tight

Water

0,1
O     0.00000   0.00000   0.00000
H     0.94740   0.00000   0.00000
H    -0.25381   0.91277   0.00000



